c CNF generator v0.9
p cnf 10 42
-1 -4 1 0
-7 10 -2 0
-8 -3 5 0
3 3 -3 0
-10 7 -3 0
-4 10 -9 0
7 9 -9 0
8 9 -10 0
-6 -7 -2 0
4 9 2 0
-7 8 1 0
7 -7 7 0
3 7 3 0
-9 -3 4 0
10 -8 3 0
-5 8 6 0
3 -9 -10 0
3 6 -8 0
-6 -1 -3 0
-5 -4 -9 0
-2 -5 -2 0
-10 8 6 0
4 8 -2 0
4 10 -8 0
10 -4 -2 0
10 10 2 0
10 7 8 0
-2 3 -8 0
-5 -10 -10 0
-7 8 3 0
6 -5 9 0
3 -5 3 0
-10 -6 6 0
2 1 3 0
1 5 -8 0
3 3 5 0
2 -8 7 0
9 8 8 0
-3 8 10 0
-8 1 2 0
7 7 8 0
-9 8 -4 0
